NAME : ClusterId_76 
COMMENT : (Gillet and Johnson) 
TYPE : CVRP 
DIMENSION : 9 
EDGE_WEIGHT_TYPE : EUC_2D 
CAPACITY : 140 
NODE_COORD_SECTION 
76 40 40 
46 51 42 
34 50 40 
4 45 35 
67 45 42 
68 38 33 
75 40 37 
26 41 46 
6 33 34 
DEMAND_SECTION 
76 3270
46 27
34 19
4 30
67 30
68 10
75 20
26 18
6 19
DEPOT_SECTION 
76
 -1
EOF